
Value of objective function: 1.70000000

Actual values of the variables:
score                         1.7
x_0_1                           5
x_0_2                           7
x_1_1                           5
x_1_2                           8
x_2_1                           2
x_2_2                           7
x_3_1                           3
x_3_2                           7
x_4_1                           3
x_4_2                           6
x_5_1                           4
x_5_2                           7
x_6_1                           3
x_6_2                           7
x_7_1                           3
x_7_2                           7
x_8_1                           4
x_8_2                           6
x_9_1                           4
x_9_2                           7
x_10_1                          3
x_10_2                          5
x_11_1                          5
x_11_2                          7
x_12_1                          3
x_12_2                          4
x_13_1                          6
x_13_2                          7
x_14_1                          3
x_14_2                          3
x_15_1                          7
x_15_2                          7
x_16_1                          4
x_16_2                          7
x_17_1                          3
x_17_2                          3
x_18_1                          3
x_18_2                          3
